NAME: instance_3184
TYPE: TSP
DIMENSION: 20
EDGE_WEIGHT_TYPE: EUC_2D
NODE_COORD_SECTION
0 30.65 13.85
1 43.28 41.94
2 40.58 4.80
3 65.61 17.37
4 9.92 92.46
5 47.12 49.12
6 41.65 20.21
7 39.65 44.97
8 72.38 82.40
9 58.19 36.06
10 53.83 25.70
11 32.96 64.83
12 15.44 56.78
13 38.81 28.80
14 36.80 36.77
15 93.29 6.61
16 58.61 66.49
17 42.89 69.19
18 12.39 37.65
19 45.63 9.05
EOF
